Version identifier: 22.1.0.0 | 2022-03-09 | 1a383f8ce
CPXPARAM_Threads                                 1
CPXPARAM_MIP_Strategy_VariableSelect             3
CPXPARAM_TimeLimit                               599.99793483200006
Found incumbent of value 0.000000 after 0.00 sec. (0.31 ticks)

Root node processing (before b&c):
  Real time             =    0.00 sec. (0.35 ticks)
Sequential b&c:
  Real time             =    0.00 sec. (0.00 ticks)
                          ------------
Total (root+branch&cut) =    0.00 sec. (0.35 ticks)
Version identifier: 22.1.0.0 | 2022-03-09 | 1a383f8ce
CPXPARAM_Threads                                 1
CPXPARAM_MIP_Strategy_VariableSelect             3
CPXPARAM_TimeLimit                               599.98391094700003
Found incumbent of value 0.000000 after 0.00 sec. (0.46 ticks)

Root node processing (before b&c):
  Real time             =    0.00 sec. (0.52 ticks)
Sequential b&c:
  Real time             =    0.00 sec. (0.00 ticks)
                          ------------
Total (root+branch&cut) =    0.00 sec. (0.52 ticks)
Version identifier: 22.1.0.0 | 2022-03-09 | 1a383f8ce
CPXPARAM_Threads                                 1
CPXPARAM_MIP_Strategy_VariableSelect             3
CPXPARAM_TimeLimit                               599.96543958699999
Found incumbent of value 0.000000 after 0.00 sec. (0.53 ticks)

Root node processing (before b&c):
  Real time             =    0.00 sec. (0.60 ticks)
Sequential b&c:
  Real time             =    0.00 sec. (0.00 ticks)
                          ------------
Total (root+branch&cut) =    0.00 sec. (0.60 ticks)
Version identifier: 22.1.0.0 | 2022-03-09 | 1a383f8ce
CPXPARAM_Threads                                 1
CPXPARAM_MIP_Strategy_VariableSelect             3
CPXPARAM_TimeLimit                               599.94442604899996
Found incumbent of value 0.000000 after 0.00 sec. (0.57 ticks)

Root node processing (before b&c):
  Real time             =    0.00 sec. (0.64 ticks)
Sequential b&c:
  Real time             =    0.00 sec. (0.00 ticks)
                          ------------
Total (root+branch&cut) =    0.00 sec. (0.64 ticks)
Version identifier: 22.1.0.0 | 2022-03-09 | 1a383f8ce
CPXPARAM_Threads                                 1
CPXPARAM_MIP_Strategy_VariableSelect             3
CPXPARAM_TimeLimit                               599.92231527700005
Found incumbent of value 0.000000 after 0.00 sec. (0.59 ticks)

Root node processing (before b&c):
  Real time             =    0.00 sec. (0.66 ticks)
Sequential b&c:
  Real time             =    0.00 sec. (0.00 ticks)
                          ------------
Total (root+branch&cut) =    0.00 sec. (0.66 ticks)
Version identifier: 22.1.0.0 | 2022-03-09 | 1a383f8ce
CPXPARAM_Threads                                 1
CPXPARAM_MIP_Strategy_VariableSelect             3
CPXPARAM_TimeLimit                               599.89979753499995
Found incumbent of value 0.000000 after 0.00 sec. (0.60 ticks)

Root node processing (before b&c):
  Real time             =    0.00 sec. (0.67 ticks)
Sequential b&c:
  Real time             =    0.00 sec. (0.00 ticks)
                          ------------
Total (root+branch&cut) =    0.00 sec. (0.67 ticks)
Version identifier: 22.1.0.0 | 2022-03-09 | 1a383f8ce
CPXPARAM_Threads                                 1
CPXPARAM_MIP_Strategy_VariableSelect             3
CPXPARAM_TimeLimit                               599.87450368600003
Tried aggregator 1 time.
MIP Presolve eliminated 374 rows and 1074 columns.
Reduced MIP has 2144 rows, 3222 columns, and 27042 nonzeros.
Reduced MIP has 3222 binaries, 0 generals, 0 SOSs, and 0 indicators.
Presolve time = 0.02 sec. (15.19 ticks)
Probing time = 0.00 sec. (2.84 ticks)
Tried aggregator 1 time.
Detecting symmetries...
Reduced MIP has 2144 rows, 3222 columns, and 27042 nonzeros.
Reduced MIP has 3222 binaries, 0 generals, 0 SOSs, and 0 indicators.
Presolve time = 0.02 sec. (16.76 ticks)
Probing time = 0.00 sec. (2.84 ticks)
Clique table members: 1426.
MIP emphasis: balance optimality and feasibility.
MIP search method: dynamic search.
Parallel mode: none, using 1 thread.
Root relaxation solution time = 0.02 sec. (19.31 ticks)

        Nodes                                         Cuts/
   Node  Left     Objective  IInf  Best Integer    Best Bound    ItCnt     Gap

      0     0        0.0000    88                      0.0000      447         
*     0+    0                            0.0000        0.0000             0.00%
      0     0        cutoff              0.0000        0.0000      447    0.00%
Elapsed time = 0.19 sec. (158.33 ticks, tree = 0.01 MB, solutions = 1)

Root node processing (before b&c):
  Real time             =    0.19 sec. (158.46 ticks)
Sequential b&c:
  Real time             =    0.00 sec. (0.00 ticks)
                          ------------
Total (root+branch&cut) =    0.19 sec. (158.46 ticks)
Version identifier: 22.1.0.0 | 2022-03-09 | 1a383f8ce
CPXPARAM_Threads                                 1
CPXPARAM_MIP_Strategy_VariableSelect             3
CPXPARAM_TimeLimit                               599.65844589200003
Tried aggregator 1 time.
MIP Presolve eliminated 375 rows and 1077 columns.
Reduced MIP has 2150 rows, 3231 columns, and 27118 nonzeros.
Reduced MIP has 3231 binaries, 0 generals, 0 SOSs, and 0 indicators.
Presolve time = 0.02 sec. (15.23 ticks)
Probing time = 0.00 sec. (2.84 ticks)
Tried aggregator 1 time.
Detecting symmetries...
Reduced MIP has 2150 rows, 3231 columns, and 27118 nonzeros.
Reduced MIP has 3231 binaries, 0 generals, 0 SOSs, and 0 indicators.
Presolve time = 0.02 sec. (16.80 ticks)
Probing time = 0.00 sec. (2.84 ticks)
Clique table members: 1430.
MIP emphasis: balance optimality and feasibility.
MIP search method: dynamic search.
Parallel mode: none, using 1 thread.
Root relaxation solution time = 0.02 sec. (21.09 ticks)

        Nodes                                         Cuts/
   Node  Left     Objective  IInf  Best Integer    Best Bound    ItCnt     Gap

      0     0        0.0000   102                      0.0000      486         
*     0+    0                            0.0000        0.0000             0.00%
      0     0        cutoff              0.0000        0.0000      486    0.00%
Elapsed time = 0.16 sec. (129.57 ticks, tree = 0.01 MB, solutions = 1)

Root node processing (before b&c):
  Real time             =    0.16 sec. (129.70 ticks)
Sequential b&c:
  Real time             =    0.00 sec. (0.00 ticks)
                          ------------
Total (root+branch&cut) =    0.16 sec. (129.70 ticks)
Version identifier: 22.1.0.0 | 2022-03-09 | 1a383f8ce
CPXPARAM_Threads                                 1
CPXPARAM_MIP_Strategy_VariableSelect             3
CPXPARAM_TimeLimit                               599.47528906900004
Tried aggregator 1 time.
MIP Presolve eliminated 376 rows and 1080 columns.
Reduced MIP has 2156 rows, 3240 columns, and 27194 nonzeros.
Reduced MIP has 3240 binaries, 0 generals, 0 SOSs, and 0 indicators.
Presolve time = 0.02 sec. (15.28 ticks)
Probing time = 0.00 sec. (2.84 ticks)
Tried aggregator 1 time.
Detecting symmetries...
Reduced MIP has 2156 rows, 3240 columns, and 27194 nonzeros.
Reduced MIP has 3240 binaries, 0 generals, 0 SOSs, and 0 indicators.
Presolve time = 0.02 sec. (16.85 ticks)
Probing time = 0.00 sec. (2.84 ticks)
Clique table members: 1434.
MIP emphasis: balance optimality and feasibility.
MIP search method: dynamic search.
Parallel mode: none, using 1 thread.
Root relaxation solution time = 0.02 sec. (21.99 ticks)

        Nodes                                         Cuts/
   Node  Left     Objective  IInf  Best Integer    Best Bound    ItCnt     Gap

      0     0        0.0000    87                      0.0000      468         
*     0+    0                            0.0000        0.0000             0.00%
      0     0        cutoff              0.0000        0.0000      468    0.00%
Elapsed time = 0.19 sec. (161.07 ticks, tree = 0.01 MB, solutions = 1)

Root node processing (before b&c):
  Real time             =    0.19 sec. (161.20 ticks)
Sequential b&c:
  Real time             =    0.00 sec. (0.00 ticks)
                          ------------
Total (root+branch&cut) =    0.19 sec. (161.20 ticks)
Primal:	360
Dual:	360
Status:	Optimal
Time:	0.738011
Sequence:
	9
	5
	9
	9
	5
	9
	9
	9
	9
	5
	9
	9
	9
	9
	5
	9
	5
	9
	9
	5
	9
	5
	9
	5
	9
	5
	9
	9
	5
	9
	9
	5
	9
	9
	9
	5
	9
	4
	9
	9
	9
	9
	5
	9
	9
	9
	9
	9
	9
	9
	5
	9
	4
	9
	9
	9
	9
	9
	9
	9
	9
	1
	9
	9
	9
	9
	9
	4
	5
	9
	9
	4
	5
	9
	9
	9
	5
	9
	9
	9
	9
	9
	9
	9
	9
	4
	5
	9
	9
	9
	5
	9
	9
	9
	9
	9
	9
	9
	9
	5
	9
	5
	0
	5
	4
	0
	4
	1
	0
	5
	4
	10
	4
	0
	9
	4
	5
	0
	4
	9
	0
	5
	4
	0
	5
	4
	0
	1
	4
	5
	9
	4
	0
	4
	1
	0
	11
	4
	5
	9
	5
	9
	5
	4
	1
	4
	1
	9
	5
	0
	4
	9
	5
	9
	5
	0
	3
	9
	4
	1
	9
	0
	5
	9
	4
	0
	9
	5
	0
	5
	9
	0
	1
	4
	0
	5
	4
	1
	4
	0
	4
	11
	9
	5
	0
	9
	1
	0
	5
	9
	5
	4
	0
	5
	4
	0
	5
	9
	5
	0
	4
	5
	0
	1
	9
	0
	4
	3
	4
	0
	4
	5
	0
	4
	5
	0
	9
	1
	0
	4
	4
	9
	5
	9
	5
	0
	5
	9
	4
	0
	5
	9
	9
	5
	9
	4
	4
	0
	4
	9
	4
	0
	1
	4
	0
	5
	4
	1
	4
	0
	5
	4
	0
	5
	9
	5
	4
	9
	0
	5
	9
	4
	9
	5
	9
	4
	9
	5
	4
	0
	4
	9
	0
	4
	5
	0
	5
	9
	5
	0
	11
	4
	9
	5
	0
	9
	1
	9
	4
	0
	5
	4
	9
	5
	0
	1
	9
	4
	5
	0
	1
	9
	5
	4
	9
	0
	5
	9
	9
	5
	0
	5
	4
	1
	0
	4
	5
	9
	4
	0
	9
	5
	4
	1
	0
	5
	9
	5
	4
	0
	5
	4
	0
	11
	4
	9
	0
	5
	9
	2
	5
	4
	3
	0
	5
	4
	0
	5
	9
	0
	5
	9
	1
	0
	5
	4
	0
	5
	9
	0
